NAME: PointSet_Angle_55_8
TYPE: TSP
COMMENT: Points chosen discrete uniformly at random out of ${0, \ldots, 500}^2$.
DIMENSION: 55
EDGE_WEIGHT_TYPE: EUC_2D
NODE_COORD_SECTION
1 401 203
2 241 129
3 24 323
4 93 317
5 427 218
6 95 184
7 29 413
8 78 430
9 135 202
10 87 471
11 66 394
12 459 131
13 208 341
14 204 235
15 185 79
16 450 333
17 283 437
18 462 307
19 259 301
20 370 186
21 18 465
22 370 295
23 377 194
24 224 11
25 142 57
26 228 455
27 198 187
28 333 152
29 274 36
30 387 206
31 116 83
32 38 399
33 19 246
34 452 279
35 47 321
36 211 312
37 286 327
38 106 409
39 20 76
40 167 162
41 134 395
42 364 78
43 81 196
44 230 356
45 232 363
46 61 94
47 192 346
48 239 459
49 338 190
50 484 131
51 11 194
52 444 43
53 20 49
54 452 40
55 126 118
EOF
